Second Year/First Semester/Algorithm Analysis/Homework 2/sat_in/bonus/27.wcnf
p wcnf 6 15 46
46 1 2 0
46 1 3 0
46 1 5 0
46 2 5 0
46 2 6 0
46 3 5 0
46 3 6 0
46 4 5 0
46 5 6 0
6 -1 0
7 -2 0
7 -3 0
8 -4 0
8 -5 0
9 -6 0
