Second Year/First Semester/Algorithm Analysis/Homework 2/out/task2/27.out
True
6 8 11 